(set-info :source |printed by MathSAT|)
(declare-fun |.x{127}| () Int)
(declare-fun |.x{143}| () Int)
(declare-fun |.y{11}| () Int)
(declare-fun |.y{14}| () Int)
(declare-fun |.y{12}| () Int)
(declare-fun |.y{15}| () Int)
(declare-fun |.x{128}| () (Array Int Int))
(declare-fun |.x{144}| () (Array Int Int))
(declare-fun |.x{129}| () Int)
(declare-fun |.x{145}| () Int)
(declare-fun |.x{130}| () (Array Int Int))
(declare-fun |.x{146}| () (Array Int Int))
(declare-fun |.x{131}| () Int)
(declare-fun |.x{147}| () Int)
(declare-fun |.x{132}| () Int)
(declare-fun |.y{16}| () Int)
(declare-fun |.y{13}| () (Array Int Int))
(declare-fun |.x{148}| () (Array Int Int))
(declare-fun |.x{133}| () Int)
(declare-fun |.x{149}| () Int)
(declare-fun |.x{134}| () (Array Int Int))
(declare-fun |.y{17}| () (Array Int Int))
(declare-fun |.x{135}| () Int)
(declare-fun |.x{142}| () Int)
(declare-fun |.loc{7}| () Bool)
(declare-fun |.loc{10}| () Bool)
(declare-fun |.loc{8}| () Bool)
(declare-fun |.loc{11}| () Bool)
(declare-fun |.loc{9}| () Bool)
(declare-fun |.loc{12}| () Bool)
(declare-fun |.x{54}| () Int)
(declare-fun |.x{184}| () Int)
(declare-fun |.x{182}| () Int)
(declare-fun |.x{111}| () Int)
(declare-fun |.x{228}| () Int)
(declare-fun |.x{230}| () Int)
(define-fun .def_32 () Bool (! |.loc{7}| :next |.loc{10}|))
(define-fun .def_126 () Bool (not .def_32))
(define-fun .def_34 () Bool (! |.loc{8}| :next |.loc{11}|))
(define-fun .def_84 () Bool (not .def_34))
(define-fun .def_309 () Bool (and .def_84 .def_126))
(define-fun .def_36 () Bool (! |.loc{9}| :next |.loc{12}|))
(define-fun .def_106 () Bool (not .def_36))
(define-fun .def_310 () Bool (! (and .def_106 .def_309) :init true))
(define-fun .def_14 () (Array Int Int) (! |.x{128}| :next |.x{144}|))
(define-fun .def_305 () Bool (= .def_14 |.x{144}|))
(define-fun .def_299 () Bool (and .def_34 .def_106))
(define-fun .def_30 () Int (! |.x{135}| :next |.x{142}|))
(define-fun .def_288 () Bool (= |.x{149}| .def_30))
(define-fun .def_28 () (Array Int Int) (! |.x{134}| :next |.y{17}|))
(define-fun .def_285 () Bool (= |.x{148}| .def_28))
(define-fun .def_283 () Bool (= |.x{142}| 0))
(define-fun .def_26 () Int (! |.x{133}| :next |.x{149}|))
(define-fun .def_281 () Bool (= |.x{147}| .def_26))
(define-fun .def_22 () Int (! |.x{132}| :next |.y{16}|))
(define-fun .def_277 () Bool (= .def_22 0))
(define-fun .def_279 () Bool (not .def_277))
(define-fun .def_18 () (Array Int Int) (! |.x{130}| :next |.x{146}|))
(define-fun .def_177 () Bool (= .def_18 |.x{146}|))
(define-fun .def_280 () Bool (and .def_177 .def_279))
(define-fun .def_282 () Bool (and .def_280 .def_281))
(define-fun .def_284 () Bool (and .def_282 .def_283))
(define-fun .def_286 () Bool (and .def_284 .def_285))
(define-fun .def_287 () Bool (and .def_285 .def_286))
(define-fun .def_289 () Bool (and .def_287 .def_288))
(define-fun .def_290 () Bool (and |.loc{10}| .def_289))
(define-fun .def_291 () Bool (and |.loc{11}| .def_290))
(define-fun .def_56 () Bool (not |.loc{12}|))
(define-fun .def_292 () Bool (and .def_56 .def_291))
(define-fun .def_16 () Int (! |.x{129}| :next |.x{145}|))
(define-fun .def_101 () Bool (= .def_16 |.x{145}|))
(define-fun .def_293 () Bool (and .def_101 .def_292))
(define-fun .def_275 () Bool (= |.y{16}| .def_30))
(define-fun .def_273 () Bool (= |.x{146}| .def_28))
(define-fun .def_271 () Bool (= |.x{145}| .def_26))
(define-fun .def_169 () Bool (not |.loc{10}|))
(define-fun .def_97 () Bool (not |.loc{11}|))
(define-fun .def_268 () Bool (and .def_97 .def_169))
(define-fun .def_202 () Bool (= |.x{147}| 0))
(define-fun .def_269 () Bool (and .def_202 .def_268))
(define-fun .def_270 () Bool (and |.loc{12}| .def_269))
(define-fun .def_272 () Bool (and .def_270 .def_271))
(define-fun .def_274 () Bool (and .def_272 .def_273))
(define-fun .def_276 () Bool (and .def_274 .def_275))
(define-fun .def_278 () Bool (and .def_276 .def_277))
(define-fun .def_294 () Bool (or .def_278 .def_293))
(define-fun .def_295 () Bool (and .def_126 .def_294))
(define-fun .def_20 () Int (! |.x{131}| :next |.x{147}|))
(define-fun .def_174 () Bool (<= .def_30 .def_20))
(define-fun .def_296 () Bool (and .def_174 .def_295))
(define-fun .def_144 () Int (* (- 1) |.x{182}|))
(define-fun .def_262 () Int (+ .def_30 .def_144))
(define-fun .def_8 () Int (! |.x{127}| :next |.x{143}|))
(define-fun .def_263 () Int (+ .def_8 .def_262))
(define-fun .def_264 () Bool (= .def_263 0))
(define-fun .def_234 () Bool (<= .def_26 .def_30))
(define-fun .def_259 () Bool (not .def_234))
(define-fun .def_249 () Int (* (- 1) |.x{142}|))
(define-fun .def_250 () Int (+ .def_30 .def_249))
(define-fun .def_251 () Bool (= .def_250 (- 1)))
(define-fun .def_75 () Int (* (- 1) |.x{184}|))
(define-fun .def_243 () Int (+ .def_30 .def_75))
(define-fun .def_244 () Int (+ .def_16 .def_243))
(define-fun .def_245 () Bool (= .def_244 0))
(define-fun .def_137 () Bool (<= .def_8 0))
(define-fun .def_142 () Bool (not .def_137))
(define-fun .def_211 () Bool (and .def_142 .def_177))
(define-fun .def_242 () Bool (and .def_32 .def_211))
(define-fun .def_246 () Bool (and .def_242 .def_245))
(define-fun .def_87 () Bool (<= |.x{184}| 0))
(define-fun .def_88 () Bool (not .def_87))
(define-fun .def_86 () Bool (<= .def_16 0))
(define-fun .def_89 () Bool (or .def_86 .def_88))
(define-fun .def_247 () Bool (and .def_89 .def_246))
(define-fun .def_91 () Bool (not .def_86))
(define-fun .def_248 () Bool (and .def_91 .def_247))
(define-fun .def_252 () Bool (and .def_248 .def_251))
(define-fun .def_253 () Bool (and |.loc{10}| .def_252))
(define-fun .def_254 () Bool (and |.loc{11}| .def_253))
(define-fun .def_255 () Bool (and .def_56 .def_254))
(define-fun .def_95 () Bool (= .def_20 |.x{147}|))
(define-fun .def_256 () Bool (and .def_95 .def_255))
(define-fun .def_160 () Int (select .def_18 |.x{184}|))
(define-fun .def_155 () Int (select .def_14 |.x{182}|))
(define-fun .def_161 () Bool (= .def_155 .def_160))
(define-fun .def_257 () Bool (and .def_161 .def_256))
(define-fun .def_24 () (Array Int Int) (! |.y{13}| :next |.x{148}|))
(define-fun .def_99 () Bool (= .def_24 |.x{148}|))
(define-fun .def_258 () Bool (and .def_99 .def_257))
(define-fun .def_260 () Bool (and .def_258 .def_259))
(define-fun .def_172 () Bool (= .def_26 |.x{149}|))
(define-fun .def_261 () Bool (and .def_172 .def_260))
(define-fun .def_265 () Bool (and .def_261 .def_264))
(define-fun .def_266 () Bool (and .def_101 .def_265))
(define-fun .def_138 () Bool (<= |.x{182}| 0))
(define-fun .def_139 () Bool (not .def_138))
(define-fun .def_140 () Bool (or .def_137 .def_139))
(define-fun .def_267 () Bool (and .def_140 .def_266))
(define-fun .def_297 () Bool (or .def_267 .def_296))
(define-fun .def_240 () Bool (= |.y{16}| .def_26))
(define-fun .def_238 () Bool (= |.x{146}| .def_24))
(define-fun .def_236 () Bool (= |.x{145}| .def_20))
(define-fun .def_230 () Bool (and .def_32 .def_97))
(define-fun .def_231 () Bool (and .def_169 .def_230))
(define-fun .def_232 () Bool (and .def_202 .def_231))
(define-fun .def_233 () Bool (and |.loc{12}| .def_232))
(define-fun .def_235 () Bool (and .def_233 .def_234))
(define-fun .def_237 () Bool (and .def_235 .def_236))
(define-fun .def_239 () Bool (and .def_237 .def_238))
(define-fun .def_241 () Bool (and .def_239 .def_240))
(define-fun .def_298 () Bool (or .def_241 .def_297))
(define-fun .def_300 () Bool (and .def_298 .def_299))
(define-fun .def_221 () Bool (<= .def_22 .def_20))
(define-fun .def_222 () Bool (not .def_221))
(define-fun .def_165 () Int (* (- 1) |.x{147}|))
(define-fun .def_166 () Int (+ .def_20 .def_165))
(define-fun .def_167 () Bool (= .def_166 (- 1)))
(define-fun .def_212 () Bool (and .def_167 .def_211))
(define-fun .def_213 () Bool (and .def_36 .def_212))
(define-fun .def_214 () Bool (and .def_126 .def_213))
(define-fun .def_103 () Bool (= .def_22 |.y{16}|))
(define-fun .def_215 () Bool (and .def_103 .def_214))
(define-fun .def_216 () Bool (and .def_89 .def_215))
(define-fun .def_217 () Bool (and .def_91 .def_216))
(define-fun .def_218 () Bool (and .def_97 .def_217))
(define-fun .def_219 () Bool (and .def_169 .def_218))
(define-fun .def_220 () Bool (and .def_84 .def_219))
(define-fun .def_223 () Bool (and .def_220 .def_222))
(define-fun .def_224 () Bool (and |.loc{12}| .def_223))
(define-fun .def_145 () Int (+ .def_20 .def_144))
(define-fun .def_146 () Int (+ .def_8 .def_145))
(define-fun .def_147 () Bool (= .def_146 0))
(define-fun .def_225 () Bool (and .def_147 .def_224))
(define-fun .def_226 () Bool (and .def_161 .def_225))
(define-fun .def_151 () Int (+ .def_20 .def_75))
(define-fun .def_152 () Int (+ .def_16 .def_151))
(define-fun .def_153 () Bool (= .def_152 0))
(define-fun .def_227 () Bool (and .def_153 .def_226))
(define-fun .def_228 () Bool (and .def_101 .def_227))
(define-fun .def_229 () Bool (and .def_140 .def_228))
(define-fun .def_301 () Bool (or .def_229 .def_300))
(define-fun .def_93 () Bool (= .def_8 |.x{143}|))
(define-fun .def_302 () Bool (and .def_93 .def_301))
(define-fun .def_206 () Bool (= .def_22 |.x{142}|))
(define-fun .def_204 () Bool (= .def_20 |.x{149}|))
(define-fun .def_10 () Int (! |.y{11}| :next |.y{14}|))
(define-fun .def_198 () Bool (= |.x{143}| .def_10))
(define-fun .def_194 () Bool (= .def_24 |.y{17}|))
(define-fun .def_192 () Bool (= |.y{16}| 1))
(define-fun .def_190 () Bool (and .def_32 .def_177))
(define-fun .def_193 () Bool (and .def_190 .def_192))
(define-fun .def_195 () Bool (and .def_193 .def_194))
(define-fun .def_12 () Int (! |.y{12}| :next |.y{15}|))
(define-fun .def_53 () Bool (<= .def_22 .def_12))
(define-fun .def_196 () Bool (and .def_53 .def_195))
(define-fun .def_197 () Bool (and .def_106 .def_196))
(define-fun .def_199 () Bool (and .def_197 .def_198))
(define-fun .def_200 () Bool (and .def_169 .def_199))
(define-fun .def_201 () Bool (and .def_84 .def_200))
(define-fun .def_203 () Bool (and .def_201 .def_202))
(define-fun .def_205 () Bool (and .def_203 .def_204))
(define-fun .def_207 () Bool (and .def_205 .def_206))
(define-fun .def_208 () Bool (and |.loc{11}| .def_207))
(define-fun .def_209 () Bool (and .def_56 .def_208))
(define-fun .def_210 () Bool (and .def_101 .def_209))
(define-fun .def_303 () Bool (or .def_210 .def_302))
(define-fun .def_63 () Int (* (- 1) |.x{111}|))
(define-fun .def_185 () Int (+ .def_26 .def_63))
(define-fun .def_186 () Int (+ .def_20 .def_185))
(define-fun .def_187 () Bool (= .def_186 0))
(define-fun .def_175 () Bool (not .def_174))
(define-fun .def_162 () Int (ite .def_161 .def_22 0))
(define-fun .def_163 () Bool (= |.y{16}| .def_162))
(define-fun .def_156 () (Array Int Int) (store .def_28 |.x{111}| .def_155))
(define-fun .def_157 () Bool (= |.y{17}| .def_156))
(define-fun .def_135 () Bool (= .def_30 |.x{142}|))
(define-fun .def_129 () Bool (<= .def_26 0))
(define-fun .def_69 () Bool (<= |.x{111}| 0))
(define-fun .def_70 () Bool (not .def_69))
(define-fun .def_131 () Bool (or .def_70 .def_129))
(define-fun .def_130 () Bool (not .def_129))
(define-fun .def_132 () Bool (and .def_130 .def_131))
(define-fun .def_133 () Bool (and |.loc{11}| .def_132))
(define-fun .def_134 () Bool (and .def_56 .def_133))
(define-fun .def_136 () Bool (and .def_134 .def_135))
(define-fun .def_141 () Bool (and .def_136 .def_140))
(define-fun .def_143 () Bool (and .def_141 .def_142))
(define-fun .def_148 () Bool (and .def_143 .def_147))
(define-fun .def_149 () Bool (and .def_89 .def_148))
(define-fun .def_150 () Bool (and .def_91 .def_149))
(define-fun .def_154 () Bool (and .def_150 .def_153))
(define-fun .def_158 () Bool (and .def_154 .def_157))
(define-fun .def_159 () Bool (and .def_93 .def_158))
(define-fun .def_164 () Bool (and .def_159 .def_163))
(define-fun .def_168 () Bool (and .def_164 .def_167))
(define-fun .def_170 () Bool (and .def_168 .def_169))
(define-fun .def_171 () Bool (and .def_101 .def_170))
(define-fun .def_173 () Bool (and .def_171 .def_172))
(define-fun .def_176 () Bool (and .def_173 .def_175))
(define-fun .def_178 () Bool (and .def_176 .def_177))
(define-fun .def_179 () Bool (and .def_34 .def_178))
(define-fun .def_180 () Bool (and .def_126 .def_179))
(define-fun .def_188 () Bool (and .def_180 .def_187))
(define-fun .def_189 () Bool (and .def_106 .def_188))
(define-fun .def_304 () Bool (or .def_189 .def_303))
(define-fun .def_306 () Bool (and .def_304 .def_305))
(define-fun .def_121 () Bool (<= |.x{147}| 0))
(define-fun .def_122 () Bool (not .def_121))
(define-fun .def_118 () Bool (<= |.x{145}| 0))
(define-fun .def_119 () Bool (not .def_118))
(define-fun .def_115 () Bool (<= |.y{16}| 0))
(define-fun .def_116 () Bool (not .def_115))
(define-fun .def_112 () Bool (<= |.y{14}| 0))
(define-fun .def_113 () Bool (not .def_112))
(define-fun .def_110 () Bool (= |.y{15}| 0))
(define-fun .def_108 () Bool (and |.loc{10}| .def_56))
(define-fun .def_109 () Bool (and .def_84 .def_108))
(define-fun .def_111 () Bool (and .def_109 .def_110))
(define-fun .def_114 () Bool (and .def_111 .def_113))
(define-fun .def_117 () Bool (and .def_114 .def_116))
(define-fun .def_120 () Bool (and .def_117 .def_119))
(define-fun .def_123 () Bool (and .def_120 .def_122))
(define-fun .def_124 () Bool (and .def_93 .def_123))
(define-fun .def_125 () Bool (and .def_97 .def_124))
(define-fun .def_127 () Bool (and .def_125 .def_126))
(define-fun .def_128 () Bool (and .def_106 .def_127))
(define-fun .def_307 () Bool (or .def_128 .def_306))
(define-fun .def_82 () Bool (= .def_10 |.y{14}|))
(define-fun .def_78 () Int (+ .def_16 .def_75))
(define-fun .def_79 () Int (+ .def_12 .def_78))
(define-fun .def_80 () Bool (= .def_79 0))
(define-fun .def_68 () Bool (<= .def_10 0))
(define-fun .def_73 () Bool (not .def_68))
(define-fun .def_71 () Bool (or .def_68 .def_70))
(define-fun .def_64 () Int (+ .def_12 .def_63))
(define-fun .def_65 () Int (+ .def_10 .def_64))
(define-fun .def_66 () Bool (= .def_65 0))
(define-fun .def_54 () Bool (not .def_53))
(define-fun .def_49 () (Array Int Int) (store .def_14 |.x{111}| |.x{182}|))
(define-fun .def_50 () Bool (= |.x{144}| .def_49))
(define-fun .def_43 () Int (* (- 1) |.y{15}|))
(define-fun .def_44 () Int (+ .def_12 .def_43))
(define-fun .def_45 () Bool (= .def_44 (- 1)))
(define-fun .def_40 () (Array Int Int) (store .def_18 |.x{184}| |.x{54}|))
(define-fun .def_41 () Bool (= |.x{146}| .def_40))
(define-fun .def_46 () Bool (and .def_41 .def_45))
(define-fun .def_51 () Bool (and .def_46 .def_50))
(define-fun .def_52 () Bool (and |.loc{10}| .def_51))
(define-fun .def_55 () Bool (and .def_52 .def_54))
(define-fun .def_57 () Bool (and .def_55 .def_56))
(define-fun .def_67 () Bool (and .def_57 .def_66))
(define-fun .def_72 () Bool (and .def_67 .def_71))
(define-fun .def_74 () Bool (and .def_72 .def_73))
(define-fun .def_81 () Bool (and .def_74 .def_80))
(define-fun .def_83 () Bool (and .def_81 .def_82))
(define-fun .def_85 () Bool (and .def_83 .def_84))
(define-fun .def_90 () Bool (and .def_85 .def_89))
(define-fun .def_92 () Bool (and .def_90 .def_91))
(define-fun .def_94 () Bool (and .def_92 .def_93))
(define-fun .def_96 () Bool (and .def_94 .def_95))
(define-fun .def_98 () Bool (and .def_96 .def_97))
(define-fun .def_100 () Bool (and .def_98 .def_99))
(define-fun .def_102 () Bool (and .def_100 .def_101))
(define-fun .def_104 () Bool (and .def_102 .def_103))
(define-fun .def_105 () Bool (and .def_32 .def_104))
(define-fun .def_107 () Bool (and .def_105 .def_106))
(define-fun .def_308 () Bool (! (or .def_107 .def_307) :trans true))
(define-fun .def_311 () Int (! |.x{228}| :next |.xpv{1}|))
(define-fun .def_316 () Int (! |.x{230}| :next |.xpv{2}|))
(define-fun .def_346 () Bool (and .def_36 .def_309))
(define-fun .def_347 () Bool (and .def_222 .def_346))
(define-fun .def_331 () Int (* (- 1) .def_311))
(define-fun .def_343 () Int (+ .def_20 .def_331))
(define-fun .def_344 () Int (+ .def_8 .def_343))
(define-fun .def_345 () Bool (= .def_344 0))
(define-fun .def_348 () Bool (and .def_345 .def_347))
(define-fun .def_327 () Int (* (- 1) .def_316))
(define-fun .def_340 () Int (+ .def_20 .def_327))
(define-fun .def_341 () Int (+ .def_16 .def_340))
(define-fun .def_342 () Bool (= .def_341 0))
(define-fun .def_349 () Bool (and .def_342 .def_348))
(define-fun .def_332 () Int (+ .def_30 .def_331))
(define-fun .def_333 () Int (+ .def_8 .def_332))
(define-fun .def_334 () Bool (= .def_333 0))
(define-fun .def_335 () Bool (and .def_32 .def_334))
(define-fun .def_336 () Bool (and .def_34 .def_335))
(define-fun .def_337 () Bool (and .def_106 .def_336))
(define-fun .def_328 () Int (+ .def_30 .def_327))
(define-fun .def_329 () Int (+ .def_16 .def_328))
(define-fun .def_330 () Bool (= .def_329 0))
(define-fun .def_338 () Bool (and .def_330 .def_337))
(define-fun .def_339 () Bool (and .def_259 .def_338))
(define-fun .def_350 () Bool (or .def_339 .def_349))
(define-fun .def_320 () Bool (<= .def_316 0))
(define-fun .def_321 () Bool (not .def_320))
(define-fun .def_322 () Bool (or .def_86 .def_321))
(define-fun .def_323 () Bool (and .def_91 .def_322))
(define-fun .def_317 () Int (select .def_18 .def_316))
(define-fun .def_315 () Int (select .def_14 .def_311))
(define-fun .def_318 () Bool (= .def_315 .def_317))
(define-fun .def_319 () Bool (not .def_318))
(define-fun .def_324 () Bool (and .def_319 .def_323))
(define-fun .def_312 () Bool (<= .def_311 0))
(define-fun .def_313 () Bool (not .def_312))
(define-fun .def_314 () Bool (or .def_137 .def_313))
(define-fun .def_325 () Bool (and .def_314 .def_324))
(define-fun .def_326 () Bool (and .def_142 .def_325))
(define-fun .def_351 () Bool (and .def_326 .def_350))
(define-fun .def_354 () Bool (! (not .def_351) :invar-property 0))
(assert true)
